10J3M/DAT/10J3MUNA-12.dat
10 3
45.1544 2038.9198
49.1614 2416.8432
44.8035 2007.3536
40.1687 1613.5245
13.9469 194.516
26.18 685.3924
42.3149 1790.5508
4.5881 21.0507
24.6573 607.9824
5.0911 25.9193
11402.0527