10J3M/SOL/10J3MUNA-12.sol
solution status: optimal solution found
objective value:                     98.6887666666667
x#1#3                                               1 	(obj:0)
x#2#3                                               1 	(obj:0)
x#3#2                               0.902396762157719 	(obj:0)
x#3#3                              0.0976032378422814 	(obj:0)
x#4#1                               0.603090631926516 	(obj:0)
x#4#2                               0.396909368073484 	(obj:0)
x#5#1                                               1 	(obj:0)
x#6#1                                               1 	(obj:0)
x#7#2                                               1 	(obj:0)
x#8#1                                               1 	(obj:0)
x#9#1                                               1 	(obj:0)
x#10#1                                              1 	(obj:0)
z                                    98.6887666666667 	(obj:1)
